2025-10-24 01:34:41,834 - INFO - 📌 第一个 epoch：默认所有模块使用 checkpoint
2025-10-24 01:58:16,889 - INFO - Epoch 1 completed in 1415.067294 seconds
2025-10-24 02:06:11,037 - INFO - torch.cuda.max_memory_reserved() : 0.560546875
2025-10-24 02:29:15,580 - INFO - 
[🔁 拟合反向传播时间模型]
2025-10-24 02:29:15,586 - INFO - 总反向传播时间: 1377.190446s
2025-10-24 02:29:15,586 - INFO - 拟合模型: backward_total ≈ 2 × (A + B) + b
2025-10-24 02:29:15,586 - INFO - A = 861.339591, B = 69.682489, b = 446.168366s
2025-10-24 02:29:15,626 - INFO - Set parameter LicenseID to value 2706656
2025-10-24 02:29:15,676 - INFO - Set parameter LogToConsole to value 1
2025-10-24 02:29:15,676 - INFO - Set parameter LogFile to value ""
2025-10-24 02:29:15,676 - INFO - Set parameter Threads to value 12
2025-10-24 02:29:15,676 - INFO - Set parameter TimeLimit to value 3600
2025-10-24 02:29:15,676 - INFO - Set parameter OptimalityTol to value 0.0001
2025-10-24 02:29:15,676 - INFO - Set parameter IntFeasTol to value 1e-05
2025-10-24 02:29:15,677 - INFO - Set parameter StartNodeLimit to value 10000000
2025-10-24 02:29:15,736 - INFO - Set parameter TimeLimit to value 3600
2025-10-24 02:29:15,736 - INFO - 
2025-10-24 02:29:15,736 - INFO - 
2025-10-24 02:29:15,736 - INFO - Restarting solve
2025-10-24 02:29:15,736 - INFO - 
2025-10-24 02:29:15,736 - INFO - 
2025-10-24 02:29:15,740 - INFO - Gurobi Optimizer version 12.0.3 build v12.0.3rc0 (linux64 - "Ubuntu 20.04.6 LTS")
2025-10-24 02:29:15,740 - INFO - 
2025-10-24 02:29:15,740 - INFO - CPU model: Intel(R) Xeon(R) Platinum 8260 CPU @ 2.40GHz, instruction set [SSE2|AVX|AVX2|AVX512]
2025-10-24 02:29:15,740 - INFO - Thread count: 48 physical cores, 96 logical processors, using up to 12 threads
2025-10-24 02:29:15,740 - INFO - 
2025-10-24 02:29:15,740 - INFO - Non-default parameters:
2025-10-24 02:29:15,740 - INFO - TimeLimit  3600
2025-10-24 02:29:15,740 - INFO - OptimalityTol  0.0001
2025-10-24 02:29:15,740 - INFO - StartNodeLimit  10000000
2025-10-24 02:29:15,740 - INFO - Threads  12
2025-10-24 02:29:15,740 - INFO - 
2025-10-24 02:29:15,740 - INFO - Optimize a model with 5603 rows, 3584 columns and 15200 nonzeros
2025-10-24 02:29:15,741 - INFO - Model fingerprint: 0xaf43c2dc
2025-10-24 02:29:15,741 - INFO - Variable types: 1024 continuous, 2560 integer (2560 binary)
2025-10-24 02:29:15,741 - INFO - Coefficient statistics:
2025-10-24 02:29:15,741 - INFO -   Matrix range     [1e+00, 2e+14]
2025-10-24 02:29:15,741 - INFO -   Objective range  [4e+04, 2e+05]
2025-10-24 02:29:15,741 - INFO -   Bounds range     [1e+00, 3e+15]
2025-10-24 02:29:15,741 - INFO -   RHS range        [1e+00, 3e+15]
2025-10-24 02:29:15,741 - INFO - Warning: Model contains large matrix coefficient range
2025-10-24 02:29:15,741 - INFO - Warning: Model contains large rhs
2025-10-24 02:29:15,741 - INFO - Warning: Model contains large bounds
2025-10-24 02:29:15,741 - INFO -          Consider reformulating model or setting NumericFocus parameter
2025-10-24 02:29:15,741 - INFO -          to avoid numerical issues.
2025-10-24 02:29:15,761 - INFO - Presolve removed 4443 rows and 2130 columns
2025-10-24 02:29:15,761 - INFO - Presolve time: 0.02s
2025-10-24 02:29:15,761 - INFO - Presolved: 1160 rows, 1454 columns, 4180 nonzeros
2025-10-24 02:29:15,764 - INFO - Variable types: 0 continuous, 1454 integer (1085 binary)
2025-10-24 02:29:15,767 - INFO - Found heuristic solution: objective 1.587254e+07
2025-10-24 02:29:15,769 - INFO - Found heuristic solution: objective 4906644.0000
2025-10-24 02:29:15,770 - INFO - Found heuristic solution: objective 4395342.0000
2025-10-24 02:29:15,775 - INFO - 
2025-10-24 02:29:15,775 - INFO - Root relaxation: objective 2.930228e+06, 448 iterations, 0.00 seconds (0.00 work units)
2025-10-24 02:29:15,784 - INFO - 
2025-10-24 02:29:15,784 - INFO -     Nodes    |    Current Node    |     Objective Bounds      |     Work
2025-10-24 02:29:15,784 - INFO -  Expl Unexpl |  Obj  Depth IntInf | Incumbent    BestBd   Gap | It/Node Time
2025-10-24 02:29:15,784 - INFO - 
2025-10-24 02:29:15,784 - INFO -      0     0 2930228.00    0   12 4395342.00 2930228.00  33.3%     -    0s
2025-10-24 02:29:15,786 - INFO - H    0     0                    4318482.0000 2930228.00  32.1%     -    0s
2025-10-24 02:29:15,788 - INFO - H    0     0                    2930228.0000 2930228.00  0.00%     -    0s
2025-10-24 02:29:15,788 - INFO -      0     0 2930228.00    0   12 2930228.00 2930228.00  0.00%     -    0s
2025-10-24 02:29:15,790 - INFO - 
2025-10-24 02:29:15,790 - INFO - Explored 1 nodes (633 simplex iterations) in 0.05 seconds (0.03 work units)
2025-10-24 02:29:15,790 - INFO - Thread count was 12 (of 96 available processors)
2025-10-24 02:29:15,790 - INFO - 
2025-10-24 02:29:15,790 - INFO - Solution count 5: 2.93023e+06 4.31848e+06 4.39534e+06 ... 1.58725e+07
2025-10-24 02:29:15,790 - INFO - 
2025-10-24 02:29:15,790 - INFO - Optimal solution found (tolerance 1.00e-04)
2025-10-24 02:29:15,790 - INFO - Best objective 2.930228000000e+06, best bound 2.930228000000e+06, gap 0.0000%
2025-10-24 02:29:15,802 - INFO - 规划前的显存GB：3.0
2025-10-24 02:29:15,802 - INFO - 规划后的显存GB：1.4015579223632812
2025-10-24 02:29:15,802 - INFO - ✅ 最优策略：[1, 1, 1, 1, 1, 1, 1, 1, 1, 1, 1, 1, 1, 1, 1, 1]
2025-10-24 02:29:15,802 - INFO - 📌 checkpoint 的欧氏长度:, []
2025-10-24 02:29:15,802 - INFO - 📌 checkpoint 的余弦长度:, []
2025-10-24 02:29:15,802 - INFO - 💾 最终显存峰值：%.2f MB % 1269.9289474487305
2025-10-24 02:29:15,803 - INFO - Epoch 2 completed in 1384.762066 seconds
2025-10-24 02:29:15,804 - INFO - torch.cuda.max_memory_reserved() : 0.560546875
2025-10-24 02:45:47,531 - INFO - Epoch 3 completed in 991.719963 seconds
2025-10-24 02:45:47,532 - INFO - 
====================== [第1个 Epoch 收集统计数据] ======================
2025-10-24 02:45:47,532 - INFO - 
🔍 EUCLIDEAN modules:
2025-10-24 02:45:47,532 - INFO - [Shapelet 128] forward_avg=0.001378s over 10912 calls | peak=14.80MB | final=0.00MB
2025-10-24 02:45:47,532 - INFO - [Shapelet 694] forward_avg=0.001365s over 10912 calls | peak=72.14MB | final=0.00MB
2025-10-24 02:45:47,532 - INFO - [Shapelet 1261] forward_avg=0.001354s over 10912 calls | peak=114.19MB | final=0.00MB
2025-10-24 02:45:47,532 - INFO - [Shapelet 1828] forward_avg=0.001366s over 10912 calls | peak=138.23MB | final=0.00MB
2025-10-24 02:45:47,532 - INFO - [Shapelet 2395] forward_avg=0.001437s over 10912 calls | peak=150.28MB | final=0.00MB
2025-10-24 02:45:47,532 - INFO - [Shapelet 2962] forward_avg=0.001497s over 10912 calls | peak=146.73MB | final=0.00MB
2025-10-24 02:45:47,532 - INFO - [Shapelet 3529] forward_avg=0.001546s over 10912 calls | peak=128.99MB | final=0.00MB
2025-10-24 02:45:47,532 - INFO - [Shapelet 4096] forward_avg=0.001516s over 10912 calls | peak=96.53MB | final=0.00MB
2025-10-24 02:45:47,532 - INFO - 
🔍 COSINE modules:
2025-10-24 02:45:47,532 - INFO - [Shapelet 128] forward_avg=0.001938s over 10912 calls | peak=9.79MB | final=0.00MB
2025-10-24 02:45:47,532 - INFO - [Shapelet 694] forward_avg=0.001811s over 10912 calls | peak=48.03MB | final=0.00MB
2025-10-24 02:45:47,532 - INFO - [Shapelet 1261] forward_avg=0.001811s over 10912 calls | peak=76.03MB | final=0.00MB
2025-10-24 02:45:47,532 - INFO - [Shapelet 1828] forward_avg=0.001812s over 10912 calls | peak=92.03MB | final=0.00MB
2025-10-24 02:45:47,532 - INFO - [Shapelet 2395] forward_avg=0.001895s over 10912 calls | peak=100.02MB | final=0.00MB
2025-10-24 02:45:47,532 - INFO - [Shapelet 2962] forward_avg=0.001851s over 10912 calls | peak=97.60MB | final=0.00MB
2025-10-24 02:45:47,532 - INFO - [Shapelet 3529] forward_avg=0.001926s over 10912 calls | peak=85.74MB | final=0.00MB
2025-10-24 02:45:47,532 - INFO - [Shapelet 4096] forward_avg=0.001811s over 10912 calls | peak=64.07MB | final=0.00MB
2025-10-24 02:45:47,532 - INFO - 
🔍 CROSS modules:
2025-10-24 02:45:47,532 - INFO - [Shapelet 128] forward_avg=0.000398s over 10912 calls
2025-10-24 02:45:47,532 - INFO - [Shapelet 694] forward_avg=0.000375s over 10912 calls
2025-10-24 02:45:47,532 - INFO - [Shapelet 1261] forward_avg=0.000370s over 10912 calls
2025-10-24 02:45:47,532 - INFO - [Shapelet 1828] forward_avg=0.000369s over 10912 calls
2025-10-24 02:45:47,532 - INFO - [Shapelet 2395] forward_avg=0.000386s over 10912 calls
2025-10-24 02:45:47,532 - INFO - [Shapelet 2962] forward_avg=0.000402s over 10912 calls
2025-10-24 02:45:47,532 - INFO - [Shapelet 3529] forward_avg=0.000432s over 10912 calls
2025-10-24 02:45:47,532 - INFO - [Shapelet 4096] forward_avg=0.000461s over 10912 calls
2025-10-24 02:45:47,532 - INFO - 
💾 模型第一次反向传播阶段的显存峰值（所有模块中的最大值）: 1211.74 MB
2025-10-24 02:45:47,533 - INFO - 
💾 模型初始显存: 3.17 MB
2025-10-24 02:45:47,533 - INFO - =======================================================================

2025-10-24 02:45:47,533 - INFO - torch.cuda.max_memory_reserved() : 1.310546875
2025-10-24 03:02:17,705 - INFO - Epoch 4 completed in 990.168759 seconds
2025-10-24 03:02:17,706 - INFO - torch.cuda.max_memory_reserved() : 1.310546875
2025-10-24 03:54:04,243 - INFO - Epoch 5 completed in 3106.529473 seconds
2025-10-24 03:54:04,245 - INFO - torch.cuda.max_memory_reserved() : 1.310546875
2025-10-24 04:10:39,803 - INFO - Epoch 6 completed in 995.546725 seconds
2025-10-24 04:10:39,804 - INFO - torch.cuda.max_memory_reserved() : 1.310546875
2025-10-24 04:48:26,514 - INFO - Epoch 7 completed in 2266.706533 seconds
2025-10-24 04:48:26,514 - INFO - torch.cuda.max_memory_reserved() : 1.310546875
2025-10-24 05:56:05,761 - INFO - Epoch 8 completed in 4059.241287 seconds
2025-10-24 05:56:05,761 - INFO - torch.cuda.max_memory_reserved() : 1.310546875
2025-10-24 07:02:47,191 - INFO - Epoch 9 completed in 4001.426274 seconds
2025-10-24 07:02:47,192 - INFO - torch.cuda.max_memory_reserved() : 1.310546875
2025-10-24 08:10:03,181 - INFO - Epoch 10 completed in 4035.985557 seconds
2025-10-24 08:18:47,294 - INFO - torch.cuda.max_memory_reserved() : 1.310546875
2025-10-24 08:18:47,299 - INFO - !!!采用策略后的几个epoch 平均时间:2555.9155713021755
2025-10-24 08:18:47,299 - INFO - 



